
Starting CP-SAT solver v9.15.6755
Parameters: random_seed: 2026073338 max_time_in_seconds: 11665.467486258 log_search_progress: true cp_model_presolve: true linearization_level: 2 num_search_workers: 4 cp_model_probing_level: 2 symmetry_level: 2

Initial satisfaction model '': (model_fingerprint: 0xba66d3c0f3870808)
#Variables: 724 (608 primary variables)
  - 724 Booleans in [0,1]
#kBoolAnd: 110 (#enforced: 110) (#literals: 330)
#kBoolOr: 110 (#enforced: 110) (#literals: 220)
#kExactlyOne: 87 (#literals: 261)
#kLinear1: 32 (#enforced: 6)
#kLinear2: 336 (#enforced: 336) (#complex_domain: 110)
#kLinear3: 1'600 (#enforced: 6)
#kLinearN: 1'132 (#enforced: 243) (#terms: 9'111)

Starting presolve at 0.00s
  6.54e-04s  0.00e+00d  [DetectDominanceRelations] 
  8.80e-03s  0.00e+00d  [PresolveToFixPoint] #num_loops=3 #num_dual_strengthening=1 
  3.61e-05s  0.00e+00d  [ExtractEncodingFromLinear] #potential_supersets=78 
  3.33e-04s  0.00e+00d  [DetectDuplicateColumns] 
  1.03e-04s  0.00e+00d  [DetectDuplicateConstraints] #duplicates=5 
[Symmetry] Graph for symmetry has 4'870 nodes and 15'740 arcs.
[Symmetry] Symmetry computation done. time: 0.00141791 dtime: 0.00218984
[SAT presolve] num removable Booleans: 220 / 626
[SAT presolve] num trivial clauses: 0
[SAT presolve] [0s] clauses:2'740 literals:7'444 vars:506 one_side_vars:66 simple_definition:1 singleton_clauses:0
[SAT presolve] [0.000219882s] clauses:2'739 literals:7'437 vars:506 one_side_vars:66 simple_definition:1 singleton_clauses:0
[SAT presolve] [0.000618269s] clauses:2'418 literals:6'932 vars:389 one_side_vars:68 simple_definition:24 singleton_clauses:0
  1.47e-04s  0.00e+00d  [DetectDuplicateConstraintsWithDifferentEnforcements] #without_enforcements=1 
  5.93e-03s  2.71e-03d  [Probe] #probed=1'316 #equiv=3 #new_binary_clauses=1'466 
  5.86e-04s  5.99e-04d  [MaxClique] Merged 657 constraints with 1'416 literals into 561 constraints with 1'274 literals
  8.82e-04s  0.00e+00d  [DetectDominanceRelations] 
  3.30e-03s  0.00e+00d  [PresolveToFixPoint] #num_loops=1 #num_dual_strengthening=1 
  1.28e-03s  0.00e+00d  [ProcessAtMostOneAndLinear] 
  1.39e-04s  0.00e+00d  [DetectDuplicateConstraints] 
  9.47e-05s  0.00e+00d  [DetectDuplicateConstraintsWithDifferentEnforcements] 
  6.26e-03s  1.56e-04d  [DetectDominatedLinearConstraints] #relevant_constraints=850 #num_inclusions=738 #num_redundant=7 
  1.95e-04s  0.00e+00d  [DetectDifferentVariables] 
  8.91e-04s  9.34e-05d  [ProcessSetPPC] #relevant_constraints=3'229 #num_inclusions=241 
  3.25e-04s  3.43e-05d  [TransformClausesToExactlyOne] #num_amos=620 #num_clauses=1'767 #num_checked=1'767 
  5.98e-05s  0.00e+00d  [DetectEncodedComplexDomains] 
  3.76e-05s  0.00e+00d  [FindAlmostIdenticalLinearConstraints] 
  9.88e-04s  1.52e-03d  [FindBigAtMostOneAndLinearOverlap] 
  1.47e-03s  1.12e-03d  [FindBigVerticalLinearOverlap] #blocks=7 #saved_nz=298 
  1.89e-04s  2.79e-04d  [FindBigHorizontalLinearOverlap] #linears=477 
  3.45e-04s  2.79e-05d  [MergeClauses] #num_collisions=9 #num_merges=9 #num_saved_literals=36 
  8.77e-04s  0.00e+00d  [DetectDominanceRelations] 
  3.29e-03s  0.00e+00d  [PresolveToFixPoint] #num_loops=2 #num_dual_strengthening=1 
  9.32e-04s  0.00e+00d  [DetectDominanceRelations] 
  3.20e-03s  0.00e+00d  [PresolveToFixPoint] #num_loops=1 #num_dual_strengthening=1 
  2.36e-04s  0.00e+00d  [DetectDuplicateColumns] 
  1.02e-04s  0.00e+00d  [DetectDuplicateConstraints] 
[Symmetry] Graph for symmetry has 4'630 nodes and 14'426 arcs.
[Symmetry] Symmetry computation done. time: 0.00104254 dtime: 0.00146049
[SAT presolve] num removable Booleans: 102 / 512
[SAT presolve] num trivial clauses: 0
[SAT presolve] [0s] clauses:2'347 literals:6'765 vars:484 one_side_vars:160 simple_definition:34 singleton_clauses:0
[SAT presolve] [0.000243626s] clauses:2'345 literals:6'598 vars:484 one_side_vars:172 simple_definition:84 singleton_clauses:0
[SAT presolve] [0.000365134s] clauses:2'217 literals:6'296 vars:481 one_side_vars:197 simple_definition:70 singleton_clauses:0
  1.68e-04s  0.00e+00d  [DetectDuplicateConstraintsWithDifferentEnforcements] 
  6.23e-03s  2.23e-03d  [Probe] #probed=1'328 #new_binary_clauses=1'464 
  5.05e-04s  5.47e-04d  [MaxClique] Merged 555 constraints with 1'219 literals into 547 constraints with 1'213 literals
  8.65e-04s  0.00e+00d  [DetectDominanceRelations] 
  3.28e-03s  0.00e+00d  [PresolveToFixPoint] #num_loops=1 #num_dual_strengthening=1 
  1.21e-03s  0.00e+00d  [ProcessAtMostOneAndLinear] 
  1.40e-04s  0.00e+00d  [DetectDuplicateConstraints] 
  1.07e-04s  0.00e+00d  [DetectDuplicateConstraintsWithDifferentEnforcements] 
  6.75e-04s  5.63e-05d  [DetectDominatedLinearConstraints] #relevant_constraints=844 #num_inclusions=312 
  1.36e-04s  0.00e+00d  [DetectDifferentVariables] 
  8.05e-04s  7.57e-05d  [ProcessSetPPC] #relevant_constraints=3'162 #num_inclusions=111 
  3.22e-04s  3.31e-05d  [TransformClausesToExactlyOne] #num_amos=546 #num_clauses=1'722 #num_checked=1'722 
  1.55e-04s  0.00e+00d  [DetectEncodedComplexDomains] 
  5.50e-05s  0.00e+00d  [FindAlmostIdenticalLinearConstraints] 
  8.88e-04s  1.14e-03d  [FindBigAtMostOneAndLinearOverlap] 
  1.28e-03s  9.14e-04d  [FindBigVerticalLinearOverlap] #blocks=4 #saved_nz=290 
  2.18e-04s  2.78e-04d  [FindBigHorizontalLinearOverlap] #linears=477 
  3.35e-04s  2.65e-05d  [MergeClauses] #num_collisions=74 #num_merges=74 #num_saved_literals=189 
  8.67e-04s  0.00e+00d  [DetectDominanceRelations] 
  3.31e-03s  0.00e+00d  [PresolveToFixPoint] #num_loops=2 #num_dual_strengthening=1 
  8.53e-04s  0.00e+00d  [DetectDominanceRelations] 
  3.03e-03s  0.00e+00d  [PresolveToFixPoint] #num_loops=1 #num_dual_strengthening=1 
  1.42e-04s  0.00e+00d  [DetectDuplicateColumns] 
  1.15e-04s  0.00e+00d  [DetectDuplicateConstraints] 
[Symmetry] Graph for symmetry has 4'478 nodes and 13'484 arcs.
[Symmetry] Symmetry computation done. time: 0.00101853 dtime: 0.00138216
[SAT presolve] num removable Booleans: 99 / 515
[SAT presolve] num trivial clauses: 0
[SAT presolve] [0s] clauses:2'218 literals:6'306 vars:488 one_side_vars:197 simple_definition:72 singleton_clauses:0
[SAT presolve] [0.000223129s] clauses:2'218 literals:6'304 vars:488 one_side_vars:197 simple_definition:72 singleton_clauses:0
[SAT presolve] [0.000286938s] clauses:2'218 literals:6'304 vars:488 one_side_vars:197 simple_definition:72 singleton_clauses:0
  1.70e-04s  0.00e+00d  [DetectDuplicateConstraintsWithDifferentEnforcements] 
  6.43e-03s  2.23e-03d  [Probe] #probed=1'340 #new_binary_clauses=1'481 
  5.08e-04s  5.50e-04d  [MaxClique] Merged 549 constraints with 1'213 literals into 547 constraints with 1'211 literals
  9.02e-04s  0.00e+00d  [DetectDominanceRelations] 
  3.24e-03s  0.00e+00d  [PresolveToFixPoint] #num_loops=1 #num_dual_strengthening=1 
  1.14e-03s  0.00e+00d  [ProcessAtMostOneAndLinear] 
  1.38e-04s  0.00e+00d  [DetectDuplicateConstraints] 
  1.11e-04s  0.00e+00d  [DetectDuplicateConstraintsWithDifferentEnforcements] 
  4.98e-04s  4.57e-05d  [DetectDominatedLinearConstraints] #relevant_constraints=845 #num_inclusions=269 
  1.47e-04s  0.00e+00d  [DetectDifferentVariables] 
  7.94e-04s  7.14e-05d  [ProcessSetPPC] #relevant_constraints=3'172 #num_inclusions=86 
  3.29e-04s  3.33e-05d  [TransformClausesToExactlyOne] #num_amos=547 #num_clauses=1'732 #num_checked=1'732 
  1.70e-04s  0.00e+00d  [DetectEncodedComplexDomains] 
  8.43e-05s  0.00e+00d  [FindAlmostIdenticalLinearConstraints] 
  7.74e-04s  9.02e-04d  [FindBigAtMostOneAndLinearOverlap] 
  1.07e-03s  7.48e-04d  [FindBigVerticalLinearOverlap] 
  2.05e-04s  2.78e-04d  [FindBigHorizontalLinearOverlap] #linears=477 
  3.55e-04s  2.67e-05d  [MergeClauses] #num_collisions=75 #num_merges=75 #num_saved_literals=191 
  8.91e-04s  0.00e+00d  [DetectDominanceRelations] 
  3.19e-03s  0.00e+00d  [PresolveToFixPoint] #num_loops=1 #num_dual_strengthening=1 
  3.14e-05s  0.00e+00d  [MergeNoOverlap] 
  3.28e-05s  0.00e+00d  [MergeNoOverlap2D] 

Presolve summary:
  - 33 affine relations were detected.
  - rule 'TODO dual: only one blocking constraint?' was applied 933 times.
  - rule 'TODO linear inclusion: superset is equality' was applied 319 times.
  - rule 'affine: new relation' was applied 33 times.
  - rule 'at_most_one: transformed into max clique' was applied 3 times.
  - rule 'bool_or: implications' was applied 74 times.
  - rule 'bool_or: only one literal' was applied 12 times.
  - rule 'bool_or: removed enforcement literal' was applied 583 times.
  - rule 'deductions: 884 stored' was applied 1 time.
  - rule 'duplicate: merged rhs of linear constraint' was applied 4 times.
  - rule 'duplicate: removed constraint' was applied 5 times.
  - rule 'duplicate: removed enforced constraint' was applied 1 time.
  - rule 'enforcement: false literal' was applied 28 times.
  - rule 'enforcement: true literal' was applied 2 times.
  - rule 'exactly_one: removed literals' was applied 32 times.
  - rule 'exactly_one: satisfied' was applied 3 times.
  - rule 'exactly_one: singleton' was applied 2 times.
  - rule 'exactly_one: size two' was applied 30 times.
  - rule 'incompatible linear: add implication' was applied 144 times.
  - rule 'linear + amo: empty after processing' was applied 6 times.
  - rule 'linear + amo: extracted enforcement literal' was applied 50 times.
  - rule 'linear inclusion: redundant containing constraint' was applied 3 times.
  - rule 'linear inclusion: redundant included constraint' was applied 3 times.
  - rule 'linear inclusion: sparsify superset' was applied 1 time.
  - rule 'linear matrix: common vertical rectangle' was applied 11 times.
  - rule 'linear1: always true' was applied 1 time.
  - rule 'linear1: x in domain' was applied 26 times.
  - rule 'linear2: convert ax + by != cte to clauses' was applied 270 times.
  - rule 'linear2: convert implied ax + by == cte to clauses' was applied 120 times.
  - rule 'linear2: implied ax + by = cte has only one solution' was applied 9 times.
  - rule 'linear: always true' was applied 406 times.
  - rule 'linear: empty' was applied 1 time.
  - rule 'linear: extracted at most one (max)' was applied 1 time.
  - rule 'linear: fixed or dup variables' was applied 877 times.
  - rule 'linear: negative clause' was applied 1'297 times.
  - rule 'linear: negative reified and' was applied 78 times.
  - rule 'linear: never in domain' was applied 6 times.
  - rule 'linear: positive at most one' was applied 26 times.
  - rule 'linear: reduced variable domains' was applied 11 times.
  - rule 'linear: remapped using affine relations' was applied 19 times.
  - rule 'new_bool: integer encoding' was applied 12 times.
  - rule 'presolve: 66 unused variables removed.' was applied 1 time.
  - rule 'presolve: iteration' was applied 3 times.
  - rule 'probing: bool_or reduced to implication' was applied 23 times.
  - rule 'probing: simplified clauses' was applied 10 times.
  - rule 'setppc: bool_or in at_most_one' was applied 7 times.
  - rule 'setppc: removed dominated constraints' was applied 100 times.
  - rule 'variables: add encoding constraint' was applied 12 times.

Presolved satisfaction model '': (model_fingerprint: 0xa04a4b42df8a20b0)
#Variables: 526 (454 primary variables)
  - 515 Booleans in [0,1]
  - 10 in [0,2]
  - 1 in [0,6]
#kAtMostOne: 65 (#literals: 247)
#kBoolAnd: 277 (#enforced: 277) (#literals: 759)
#kBoolAndClauses: 75 (#enforced: 75 #multi: 75) (#literals: 341)
#kBoolOr: 1'582 (#literals: 4'800)
#kExactlyOne: 58 (#literals: 210)
#kLinear1: 24 (#enforced: 24)
#kLinear2: 1
#kLinear3: 9 (#enforced: 6)
#kLinearN: 835 (#enforced: 132) (#terms: 5'620)
[Symmetry] Graph for symmetry has 4'255 nodes and 13'477 arcs.
[Symmetry] Symmetry computation done. time: 0.000835607 dtime: 0.00136608

Preloading model.
#Model   0.10s var:526/526 constraints:2926/2926

Starting search at 0.10s with 4 workers.
3 full problem subsolvers: [default_lp, max_lp, no_lp]
1 first solution subsolver: [fj]
2 interleaved subsolvers: [feasibility_pump, rins/rens]
2 helper subsolvers: [neighborhood_helper, synchronization_agent]

#Model  56.56s var:525/526 constraints:2924/2926
#Model 116.24s var:520/526 constraints:2887/2926
#Model 133.44s var:519/526 constraints:2885/2926
#Model 152.47s var:518/526 constraints:2870/2926
#Model 243.16s var:517/526 constraints:2852/2926
#Model 314.37s var:516/526 constraints:2851/2926
#Model 341.21s var:515/526 constraints:2851/2926
#Model 603.98s var:514/526 constraints:2849/2926
#Model 746.69s var:513/526 constraints:2847/2926
#Model 1069.24s var:512/526 constraints:2845/2926
#Model 1552.68s var:511/526 constraints:2844/2926
#Model 1864.96s var:510/526 constraints:2843/2926
#Model 2283.20s var:507/526 constraints:2824/2926
#Model 3558.97s var:506/526 constraints:2824/2926
#Model 4535.95s var:505/526 constraints:2823/2926
#Model 5183.88s var:504/526 constraints:2822/2926
#Model 5257.57s var:503/526 constraints:2821/2926
#Model 5289.62s var:502/526 constraints:2802/2926
#Model 5291.13s var:501/526 constraints:2784/2926
#Model 5293.04s var:499/526 constraints:2781/2926
#Model 5293.17s var:495/526 constraints:2740/2926
#Model 5296.66s var:493/526 constraints:2704/2926
#Model 5296.95s var:388/526 constraints:1525/2926
#Done  5296.95s no_lp

Task timing                   n [     min,      max]      avg      dev     time         n [     min,      max]      avg      dev    dtime
        'default_lp':         1 [   1.47h,    1.47h]    1.47h   0.00ns    1.47h         2 [  2.32ms,    1.42h]   42.67m   42.67m    1.42h
  'feasibility_pump':     26242 [843.58us, 138.37ms]   1.73ms 917.90us   45.35s     26241 [287.01us, 119.97ms] 293.85us 738.77us    7.71s
                'fj':     18017 [109.31ms, 263.52ms] 145.65ms  12.35ms   43.74m     18017 [ 62.23ms, 100.12ms] 100.01ms 281.71us   30.03m
            'max_lp':         1 [   1.47h,    1.47h]    1.47h   0.00ns    1.47h         2 [ 98.36ms,    1.69h]   50.80m   50.80m    1.69h
             'no_lp':         1 [   1.47h,    1.47h]    1.47h   0.00ns    1.47h         2 [  2.21ms,    2.88h]    1.44h    1.44h    2.88h
         'rins/rens':     24073 [711.43us, 228.95ms] 109.01ms  42.96ms   43.74m     24064 [ 68.04us, 100.39ms]  66.71ms  38.51ms   26.76m

Search stats     Bools   Conflicts    Branches  Restarts  BacktrackToRoot   Backtrack     BoolPropag  IntegerPropag
  'default_lp':    515     478'175   9'783'120     2'389        1'490'289   2'321'261    121'690'555    119'888'978
      'max_lp':    515     388'868  11'981'710     1'804        1'845'849   2'676'268    149'314'643    149'361'511
       'no_lp':    515  28'642'769  37'814'544    98'329          646'707  29'087'643  2'501'531'029    619'063'393

SAT formula      Fixed  Equiv  Total  VarLeft  BinaryClauses  PermanentClauses  TemporaryClauses
  'default_lp':     22      9    515      484          2'782            80'054             7'876
      'max_lp':     23     10    515      482          2'822            76'824             6'550
       'no_lp':    237     10    515      268          3'312           121'157             2'896

SAT stats        ClassicMinim   LitRemoved  LitRemovedBinary   LitLearned  LitForgotten   Subsumed
  'default_lp':       424'521    7'215'599         2'063'524   14'418'795     9'589'077    176'925
      'max_lp':       339'235    5'286'922         1'818'100   10'155'715     6'978'358    103'443
       'no_lp':    25'824'176  474'013'305       136'889'274  717'750'208   575'186'895  7'654'240

Vivification       Clauses   Decisions  LitTrue  Subsumed  LitRemoved  DecisionReused  Conflicts
  'default_lp':  1'464'264   8'810'252        6    22'414     277'112         428'176      2'667
      'max_lp':  1'800'829  10'997'924        1    25'604     316'615         509'284      2'906
       'no_lp':    434'227   3'743'003       13    29'217     415'939         107'364      2'297

Clause deletion    at_true  l_and_not(l)  to_binary  sub_conflict  sub_extra  sub_decisions  sub_eager  sub_vivify  sub_probing  sub_inpro  blocked  eliminated   forgotten    promoted   conflicts
    'default_lp':    3'737            22         14       174'245      1'190          7'826      2'680      22'414        4'023     23'372        0           0     257'276     960'163     478'175
        'max_lp':    5'148            12         19       102'079      1'012          3'423      1'364      25'604        5'212     27'834        0           0     239'686     839'421     388'868
         'no_lp':   54'354           727         50     7'524'370     55'707        336'000    129'870      29'217       41'247    115'124        0           0  20'240'178  64'493'083  28'642'769

Lp stats         Component  Iterations  AddedCuts  OPTIMAL  DUAL_F.  DUAL_U.
  'default_lp':          1  59'186'032    191'959  691'862        1  336'868
      'max_lp':          1  26'626'524    244'550  120'625  363'344   69'753

Lp dimension        Final dimension of first component
  'default_lp':    329 rows, 372 columns, 4240 entries
      'max_lp':  1486 rows, 526 columns, 12118 entries

Lp debug         CutPropag  CutEqPropag   Adjust  Overflow        Bad  BadScaling
  'default_lp':          0          236  336'856         0  5'003'448           0
      'max_lp':          0           38   69'722         0  7'279'708           0

Lp pool          Constraints  Updates  Simplif  Merged  Shortened  Split  Strengthened        Cuts/Call
  'default_lp':       10'767   41'979        0       0      1'009      0             0  191'959/320'635
      'max_lp':       12'836   97'047      407       5      2'736    605         4'846  244'550/452'687

Lp Cut            default_lp   max_lp
          CG_FF:       1'990      146
           CG_K:       1'185       16
          CG_KL:       1'126        2
           CG_R:       2'109       71
          CG_RB:          21        2
         CG_RBP:           5        -
         Clique:           -      489
             IB:         312       38
       MIR_1_FF:       1'473    1'633
        MIR_1_K:         444       60
       MIR_1_KL:       1'117       79
        MIR_1_R:       1'468      884
       MIR_1_RB:           8        8
      MIR_1_RBP:           4        1
      MIR_1_RLT:           -   23'959
       MIR_2_FF:       2'228    2'229
        MIR_2_K:         559      423
       MIR_2_KL:       1'321      192
        MIR_2_R:       2'637    2'453
       MIR_2_RB:          16        4
      MIR_2_RBP:          13        -
       MIR_3_FF:         778      523
        MIR_3_K:         182       77
       MIR_3_KL:         304       39
        MIR_3_R:       1'220      775
       MIR_3_RB:          12        2
      MIR_3_RBP:          13        7
       MIR_4_FF:         309      134
        MIR_4_K:          82       28
       MIR_4_KL:         125        5
        MIR_4_R:         847      696
       MIR_4_RB:           9        2
      MIR_4_RBP:          16       13
       MIR_5_FF:          90       69
        MIR_5_K:          26       14
       MIR_5_KL:          26        5
        MIR_5_R:         595      621
       MIR_5_RB:           5        1
      MIR_5_RBP:          12       11
       MIR_6_FF:          46       13
        MIR_6_K:          21        8
       MIR_6_KL:           7        1
        MIR_6_R:         506      602
       MIR_6_RB:           3        4
      MIR_6_RBP:          10       19
   ZERO_HALF_FF:         969    1'629
    ZERO_HALF_K:         362      227
   ZERO_HALF_KL:         271       14
    ZERO_HALF_R:     166'865  206'123
   ZERO_HALF_RB:         139        9
  ZERO_HALF_RBP:          73      190

LNS stats       Improv/Calls  Closed  Difficulty  TimeLimit
  'rins/rens':   24069/24069     50%    8.01e-01       0.10

LS stats                                    Batches  Restarts/Perturbs    LinMoves    GenMoves  CompoundMoves  Bactracks  WeightUpdates  ScoreComputed
                             'fj_restart':      951                230  27'789'890           0              0          0     23'603'977     62'190'550
                    'fj_restart_compound':    1'097                201           0  13'724'392        557'553  6'583'008         32'598    207'594'666
                'fj_restart_compound_obj':    1'092                208           0  13'650'620        562'906  6'543'370         33'224    206'795'540
            'fj_restart_compound_perturb':      806                235           0   9'855'440        572'710  4'640'826         21'012    152'947'638
        'fj_restart_compound_perturb_obj':    1'014                221           0  12'559'694        603'876  5'977'487         27'787    192'134'385
                       'fj_restart_decay':    2'343                230  82'454'801           0              0          0      3'326'905     62'222'084
              'fj_restart_decay_compound':      797                237           0  10'551'584      1'631'430  4'459'481         10'515    153'756'025
          'fj_restart_decay_compound_obj':      839                221           0  11'291'441      1'742'005  4'774'113         10'976    161'786'712
      'fj_restart_decay_compound_perturb':    1'239                226           0  17'286'830      2'620'303  7'332'718         15'854    239'828'344
  'fj_restart_decay_compound_perturb_obj':    1'439                224           0  20'054'758      3'068'609  8'492'495         18'276    277'955'243
                   'fj_restart_decay_obj':      541                208  18'999'838           0              0          0        766'538     14'543'975
               'fj_restart_decay_perturb':    1'798                248  63'197'820           0              0          0      2'552'607     47'683'432
           'fj_restart_decay_perturb_obj':      948                226  33'311'176           0              0          0      1'344'612     25'177'147
                         'fj_restart_obj':      602                210  18'018'384           0              0          0     14'731'970     38'994'412
                     'fj_restart_perturb':    1'045                230  30'898'932           0              0          0     26'324'065     71'050'469
                 'fj_restart_perturb_obj':    1'466                216  43'145'854           0              0          0     37'805'881     96'113'161

Solution repositories    Added  Queried  Synchro
    'alternative_path':      0        0        0
      'best_solutions':      0        0        0
   'fj solution hints':  3'563        0    3'563
        'lp solutions':  4'618   24'073    4'607
                'pump':      0        0

Improving bounds shared    Num  Sym
            'default_lp':    9    0
                'max_lp':   14    0
                 'no_lp':  158    0

Clauses shared    #Exported  #Imported  #BinaryRead  #BinaryTotal
   'default_lp':      5'055    106'171          215           782
       'max_lp':      6'428    105'814          283           782
        'no_lp':    105'441     15'333          782           782

LRAT_status: NA
CpSolverResponse summary:
status: INFEASIBLE
objective: NA
best_bound: NA
integers: 372
booleans: 515
conflicts: 28642769
branches: 37814544
propagations: 2501531029
integer_propagations: 619063393
restarts: 98329
lp_iterations: 0
walltime: 5296.99
usertime: 5296.99
deterministic_time: 25017.4
gap_integral: 0

{
  "board_size": 22,
  "parity_proved": 0,
  "target": 34,
  "child_id": 1138,
  "child_count": 2640,
  "partition": "unknown_pair_x_diag_plus_twos_x_diag_minus_twos",
  "build_seconds": 0.08060383796691895,
  "workers": 4,
  "requested_seed": 2026073338,
  "effective_seed": 2026073338,
  "main_diagonal_pair": [
    2,
    19
  ],
  "pair_index": 56,
  "diag_plus_twos": 17,
  "diag_minus_twos": 16,
  "pair_excess": 0,
  "residual_certificate_slack": 112,
  "analytic_minimum_line_defect": 0,
  "analytic_defect_details": {
    "row_costs": {
      "12": 6,
      "13": 3,
      "14": 0,
      "15": 0,
      "16": 0,
      "17": 0
    },
    "column_costs": {
      "12": 6,
      "13": 3,
      "14": 0,
      "15": 0,
      "16": 0,
      "17": 0
    },
    "plus_cost": 0,
    "minus_cost": 0,
    "row_column_minimum": 0
  },
  "maximal_line_constraints": 2455,
  "analytic_infeasible": false,
  "allowed_points": 242,
  "status": "INFEASIBLE",
  "proof_method": "cp_sat_all_lines_with_certificate_profile_cuts",
  "elapsed_seconds": 5296.991559267044,
  "branches": 37814544,
  "conflicts": 28642769
}
